1 1991
2 1834
3 1738
4 1727
10 1679
18 1660
25 1654
36 1652
44 1631
135 1598
674 1578



1 1801
3 1758
4 1699
10 1669
16 1665
45 1645
48 1638
132 1632
258 1622
260 1616
518 1589



1 1888
2 1854
3 1787
5 1766
6 1758
7 1669
24 1667
27 1608
142 1585
425 1566



1 1922
2 1805
3 1750
4 1701
12 1692
14 1651
41 1637
94 1631
161 1625
245 1559



1 2011
2 1750
4 1728
6 1716
11 1693
17 1668
26 1622
77 1588
854 1585



